c File: data_files/evolved_graphs/g3678.col
c
c Auto generated graph
c
p edge 100 1079
e 1 6
e 1 18
e 1 29
e 1 59
e 1 60
e 1 62
e 1 64
e 1 65
e 1 68
e 1 69
e 1 70
e 1 71
e 1 72
e 1 74
e 1 84
e 1 92
e 1 94
e 1 95
e 2 34
e 2 40
e 2 55
e 2 59
e 2 60
e 2 64
e 2 65
e 2 66
e 2 67
e 2 69
e 2 70
e 2 71
e 2 73
e 2 74
e 2 79
e 2 94
e 2 100
e 3 4
e 3 11
e 3 17
e 3 18
e 3 20
e 3 31
e 3 42
e 3 47
e 3 53
e 3 62
e 3 63
e 3 65
e 3 66
e 3 67
e 3 68
e 3 71
e 3 74
e 4 5
e 4 17
e 4 21
e 4 24
e 4 26
e 4 29
e 4 37
e 4 42
e 4 43
e 4 47
e 4 49
e 4 50
e 4 51
e 4 55
e 4 60
e 4 61
e 4 62
e 4 63
e 4 64
e 4 66
e 4 68
e 4 70
e 4 71
e 4 73
e 4 74
e 4 79
e 4 81
e 5 12
e 5 17
e 5 20
e 5 21
e 5 25
e 5 26
e 5 41
e 5 48
e 5 49
e 5 50
e 5 59
e 5 61
e 5 62
e 5 66
e 5 67
e 5 68
e 5 69
e 5 70
e 5 72
e 5 78
e 6 18
e 6 38
e 6 40
e 6 42
e 6 59
e 6 61
e 6 63
e 6 64
e 6 65
e 6 66
e 6 67
e 6 70
e 6 71
e 6 73
e 6 74
e 6 86
e 6 88
e 6 98
e 6 100
e 7 11
e 7 19
e 7 21
e 7 27
e 7 30
e 7 42
e 7 45
e 7 46
e 7 50
e 7 59
e 7 60
e 7 70
e 7 71
e 7 72
e 7 74
e 7 91
e 8 13
e 8 14
e 8 23
e 8 24
e 8 31
e 8 37
e 8 39
e 8 48
e 8 56
e 8 60
e 8 62
e 8 63
e 8 64
e 8 66
e 8 67
e 8 68
e 8 70
e 8 74
e 9 10
e 9 15
e 9 19
e 9 22
e 9 46
e 9 47
e 9 58
e 9 59
e 9 61
e 9 62
e 9 63
e 9 64
e 9 65
e 9 67
e 9 68
e 9 69
e 9 70
e 9 72
e 9 73
e 9 74
e 9 91
e 10 22
e 10 43
e 10 55
e 10 60
e 10 61
e 10 62
e 10 63
e 10 64
e 10 65
e 10 69
e 10 72
e 10 73
e 10 74
e 10 81
e 10 100
e 11 28
e 11 33
e 11 44
e 11 50
e 11 56
e 11 60
e 11 62
e 11 64
e 11 66
e 11 67
e 11 71
e 11 72
e 11 73
e 11 75
e 11 91
e 11 99
e 11 100
e 12 21
e 12 37
e 12 41
e 12 49
e 12 55
e 12 58
e 12 59
e 12 60
e 12 62
e 12 64
e 12 65
e 12 66
e 12 71
e 12 72
e 12 74
e 12 75
e 12 99
e 13 19
e 13 28
e 13 40
e 13 45
e 13 53
e 13 57
e 13 60
e 13 62
e 13 65
e 13 66
e 13 67
e 13 68
e 13 71
e 13 72
e 13 74
e 13 95
e 13 99
e 14 16
e 14 19
e 14 23
e 14 40
e 14 44
e 14 59
e 14 60
e 14 65
e 14 66
e 14 71
e 14 72
e 14 73
e 14 74
e 14 88
e 14 92
e 15 16
e 15 18
e 15 33
e 15 43
e 15 56
e 15 60
e 15 61
e 15 62
e 15 63
e 15 65
e 15 66
e 15 67
e 15 68
e 15 69
e 15 71
e 15 72
e 15 73
e 15 74
e 15 84
e 16 19
e 16 24
e 16 31
e 16 34
e 16 38
e 16 39
e 16 43
e 16 44
e 16 51
e 16 62
e 16 63
e 16 65
e 16 69
e 16 71
e 16 72
e 16 73
e 17 24
e 17 32
e 17 33
e 17 40
e 17 45
e 17 58
e 17 59
e 17 61
e 17 62
e 17 65
e 17 69
e 17 71
e 17 73
e 17 77
e 17 85
e 17 87
e 18 23
e 18 24
e 18 29
e 18 31
e 18 33
e 18 44
e 18 54
e 18 56
e 18 61
e 18 62
e 18 64
e 18 67
e 18 68
e 18 69
e 19 25
e 19 28
e 19 29
e 19 31
e 19 32
e 19 33
e 19 34
e 19 45
e 19 46
e 19 48
e 19 51
e 19 52
e 19 55
e 19 59
e 19 60
e 19 61
e 19 64
e 19 65
e 19 66
e 19 68
e 19 69
e 19 70
e 19 72
e 19 73
e 19 74
e 19 89
e 19 98
e 20 34
e 20 35
e 20 36
e 20 37
e 20 45
e 20 46
e 20 47
e 20 49
e 20 51
e 20 59
e 20 60
e 20 62
e 20 63
e 20 64
e 20 66
e 20 68
e 20 70
e 20 72
e 20 74
e 21 26
e 21 27
e 21 28
e 21 36
e 21 41
e 21 49
e 21 51
e 21 60
e 21 61
e 21 62
e 21 65
e 21 67
e 21 69
e 21 70
e 21 72
e 21 74
e 21 90
e 21 93
e 22 23
e 22 36
e 22 41
e 22 43
e 22 45
e 22 61
e 22 64
e 22 65
e 22 66
e 22 67
e 22 69
e 22 71
e 22 73
e 23 24
e 23 26
e 23 28
e 23 29
e 23 30
e 23 35
e 23 41
e 23 54
e 23 56
e 23 58
e 23 60
e 23 62
e 23 66
e 23 68
e 23 69
e 23 70
e 23 71
e 23 74
e 23 86
e 23 91
e 23 94
e 24 41
e 24 52
e 24 55
e 24 60
e 24 61
e 24 62
e 24 64
e 24 65
e 24 70
e 24 71
e 24 96
e 25 40
e 25 41
e 25 56
e 25 60
e 25 65
e 25 68
e 25 69
e 25 70
e 25 72
e 25 74
e 26 29
e 26 30
e 26 36
e 26 46
e 26 47
e 26 49
e 26 52
e 26 53
e 26 54
e 26 58
e 26 59
e 26 60
e 26 61
e 26 62
e 26 68
e 26 69
e 26 71
e 26 74
e 26 97
e 27 29
e 27 31
e 27 43
e 27 45
e 27 46
e 27 49
e 27 52
e 27 62
e 27 63
e 27 64
e 27 65
e 27 66
e 27 69
e 27 73
e 27 95
e 28 44
e 28 45
e 28 49
e 28 52
e 28 61
e 28 63
e 28 64
e 28 65
e 28 66
e 28 67
e 28 71
e 28 72
e 28 74
e 28 85
e 29 35
e 29 40
e 29 54
e 29 56
e 29 59
e 29 61
e 29 62
e 29 63
e 29 66
e 29 70
e 29 71
e 29 73
e 29 99
e 30 31
e 30 36
e 30 47
e 30 48
e 30 49
e 30 59
e 30 60
e 30 62
e 30 63
e 30 64
e 30 65
e 30 66
e 30 68
e 30 70
e 30 73
e 30 74
e 30 87
e 30 91
e 30 97
e 31 38
e 31 43
e 31 50
e 31 54
e 31 56
e 31 59
e 31 61
e 31 63
e 31 67
e 31 68
e 31 69
e 31 70
e 31 72
e 31 73
e 31 81
e 32 35
e 32 37
e 32 38
e 32 46
e 32 47
e 32 59
e 32 61
e 32 64
e 32 65
e 32 66
e 32 67
e 32 69
e 32 71
e 32 74
e 32 88
e 32 94
e 33 39
e 33 43
e 33 56
e 33 61
e 33 63
e 33 65
e 33 69
e 33 71
e 33 72
e 33 74
e 33 96
e 34 45
e 34 51
e 34 52
e 34 55
e 34 59
e 34 61
e 34 62
e 34 64
e 34 65
e 34 70
e 34 71
e 34 72
e 34 73
e 34 80
e 35 40
e 35 46
e 35 52
e 35 56
e 35 58
e 35 59
e 35 60
e 35 61
e 35 62
e 35 69
e 35 71
e 35 72
e 35 91
e 36 47
e 36 55
e 36 61
e 36 66
e 36 69
e 36 70
e 36 72
e 36 73
e 36 74
e 36 81
e 37 38
e 37 47
e 37 56
e 37 57
e 37 59
e 37 60
e 37 63
e 37 65
e 37 66
e 37 67
e 37 68
e 37 70
e 37 71
e 37 72
e 37 73
e 37 74
e 37 78
e 37 83
e 38 40
e 38 43
e 38 49
e 38 54
e 38 56
e 38 60
e 38 62
e 38 63
e 38 64
e 38 65
e 38 66
e 38 67
e 38 69
e 38 71
e 38 72
e 38 73
e 38 74
e 38 100
e 39 50
e 39 56
e 39 57
e 39 59
e 39 61
e 39 62
e 39 65
e 39 66
e 39 68
e 39 69
e 39 71
e 39 72
e 39 74
e 40 42
e 40 50
e 40 58
e 40 59
e 40 60
e 40 62
e 40 63
e 40 64
e 40 65
e 40 66
e 40 67
e 40 68
e 40 70
e 40 73
e 40 74
e 40 79
e 40 81
e 40 88
e 40 100
e 41 47
e 41 49
e 41 52
e 41 59
e 41 60
e 41 61
e 41 62
e 41 63
e 41 65
e 41 67
e 41 69
e 41 72
e 41 85
e 41 100
e 42 49
e 42 52
e 42 54
e 42 60
e 42 61
e 42 62
e 42 63
e 42 64
e 42 65
e 42 68
e 42 69
e 42 72
e 42 73
e 42 74
e 42 86
e 43 47
e 43 49
e 43 55
e 43 63
e 43 65
e 43 66
e 43 68
e 43 70
e 43 72
e 43 73
e 43 88
e 44 46
e 44 51
e 44 52
e 44 54
e 44 62
e 44 63
e 44 64
e 44 66
e 44 67
e 44 68
e 44 72
e 44 73
e 44 90
e 44 98
e 45 54
e 45 60
e 45 61
e 45 62
e 45 65
e 45 66
e 45 69
e 45 71
e 45 72
e 45 73
e 45 74
e 45 89
e 46 55
e 46 57
e 46 59
e 46 60
e 46 61
e 46 64
e 46 67
e 46 68
e 46 69
e 46 71
e 46 72
e 46 73
e 47 48
e 47 53
e 47 59
e 47 60
e 47 64
e 47 65
e 47 66
e 47 69
e 47 72
e 47 73
e 47 74
e 48 49
e 48 57
e 48 59
e 48 62
e 48 63
e 48 64
e 48 65
e 48 67
e 48 68
e 48 69
e 48 70
e 48 74
e 49 56
e 49 59
e 49 60
e 49 61
e 49 63
e 49 64
e 49 65
e 49 67
e 49 68
e 49 70
e 49 71
e 49 72
e 49 73
e 49 94
e 49 100
e 50 53
e 50 57
e 50 58
e 50 59
e 50 60
e 50 61
e 50 62
e 50 63
e 50 64
e 50 65
e 50 66
e 50 67
e 50 68
e 50 70
e 50 76
e 50 98
e 50 100
e 51 52
e 51 58
e 51 59
e 51 61
e 51 62
e 51 64
e 51 65
e 51 66
e 51 69
e 51 70
e 51 73
e 51 74
e 51 98
e 52 54
e 52 55
e 52 57
e 52 58
e 52 59
e 52 62
e 52 63
e 52 64
e 52 66
e 52 68
e 52 71
e 52 82
e 52 92
e 52 97
e 53 59
e 53 61
e 53 62
e 53 63
e 53 64
e 53 66
e 53 71
e 53 73
e 53 74
e 53 77
e 54 59
e 54 60
e 54 62
e 54 63
e 54 65
e 54 66
e 54 68
e 54 70
e 54 72
e 54 73
e 54 79
e 54 94
e 54 100
e 55 61
e 55 62
e 55 64
e 55 66
e 55 71
e 55 72
e 55 73
e 55 74
e 55 86
e 55 99
e 56 62
e 56 64
e 56 65
e 56 66
e 56 68
e 56 69
e 56 71
e 56 72
e 56 73
e 56 95
e 57 59
e 57 64
e 57 68
e 57 70
e 57 74
e 57 88
e 57 93
e 58 62
e 58 63
e 58 65
e 58 66
e 58 67
e 58 68
e 58 69
e 58 70
e 58 73
e 58 74
e 58 87
e 58 95
e 59 61
e 59 66
e 59 67
e 59 69
e 59 82
e 59 88
e 59 93
e 59 94
e 59 96
e 60 61
e 60 69
e 60 75
e 60 88
e 60 89
e 60 93
e 60 94
e 60 95
e 60 96
e 61 62
e 61 68
e 61 71
e 61 74
e 61 82
e 61 83
e 61 86
e 61 87
e 61 88
e 61 90
e 61 91
e 61 94
e 61 96
e 61 97
e 61 99
e 62 71
e 62 86
e 62 87
e 62 90
e 62 92
e 62 96
e 63 74
e 63 75
e 63 78
e 63 80
e 63 84
e 63 90
e 63 95
e 63 100
e 64 77
e 64 88
e 64 92
e 64 94
e 64 95
e 64 96
e 64 98
e 65 78
e 65 81
e 65 86
e 65 87
e 65 89
e 65 90
e 65 96
e 66 71
e 66 78
e 66 80
e 66 86
e 66 88
e 66 89
e 66 93
e 66 97
e 66 98
e 67 69
e 67 80
e 67 87
e 67 88
e 67 91
e 67 92
e 67 93
e 67 94
e 67 97
e 68 69
e 68 71
e 68 86
e 68 87
e 68 88
e 68 91
e 68 92
e 68 93
e 68 94
e 68 96
e 69 74
e 69 78
e 69 83
e 69 85
e 69 88
e 69 91
e 69 99
e 70 71
e 70 74
e 70 79
e 70 81
e 70 86
e 70 90
e 70 92
e 71 80
e 71 85
e 71 90
e 71 91
e 71 93
e 72 77
e 72 86
e 72 92
e 72 95
e 72 97
e 72 98
e 73 86
e 73 90
e 73 94
e 73 95
e 73 97
e 74 75
e 74 81
e 74 83
e 74 91
e 74 94
e 74 96
e 75 81
e 75 82
e 75 83
e 75 87
e 75 88
e 75 90
e 75 94
e 75 97
e 76 86
e 76 87
e 76 88
e 76 89
e 76 91
e 76 94
e 76 95
e 76 98
e 77 80
e 77 81
e 77 83
e 77 85
e 77 86
e 77 92
e 77 96
e 78 87
e 78 88
e 78 89
e 78 93
e 78 94
e 78 98
e 78 100
e 79 89
e 79 90
e 79 91
e 80 88
e 80 93
e 81 84
e 81 92
e 81 93
e 81 96
e 81 99
e 81 100
e 82 92
e 82 94
e 82 96
e 82 98
e 83 86
e 83 89
e 83 92
e 83 94
e 83 95
e 85 90
e 85 97
e 85 100
e 86 88
e 86 94
e 86 99
e 89 90
e 89 91
e 89 96
e 89 98
e 90 91
e 90 92
e 90 99
e 92 100
e 93 100
e 95 99
e 96 99
